Ti Pb  O 
 1.0000000000000000
     3.8750228156775268   -0.0000009207683460   -0.0000746944216260
    -0.0000009207683460    3.8749701493156459    0.0000064829500070
    -0.0000895092668130    0.0000077688506280    4.1184255144661099
 Ti  Pb  O  
   1   1   3
Cartesian
  1.9377981766422385  1.9374815032408297  2.2463322763873932
  0.0000572040564630  3.8749644162097483  0.0776643112424559
  1.9375798540004745  1.9374970414712649  0.4607272371886193
  0.0000036089885752  1.9374883380936816  2.5602832801272846
  1.9374289633522992  3.8749721088588585  2.5602595237747736
