 V  O 
 1.0000000000000000
    -0.0000002799157810   -4.6431852507208875    0.0000000010138300
     4.6431852507208928    0.0000002799157730    0.0000000000000000
    -0.0000000000000005   -0.0000000005427093    2.8092696664833312
 V   O  
   2   4
Cartesian
  4.6431852393290125  0.0000002630989588  2.8092696411480564
  2.3215924726545145 -2.3215924715697169  1.4046348321651301
  1.3572759807946682 -3.2859089615799699  0.0000000052558804
  3.2859089965199573 -1.3572760010882037  0.0000000026195908
  0.9643243096201152 -0.9643242871569021  1.4046348316568309
  3.6788606568452620 -3.6788606814784939  1.4046348374237920
